\ENCODING=ISO-8859-1
\Problem name: ilog.cplex

Minimize
 obj1: 98053 x1 + 106770 x2 + 97814 x3 + 98634 x4 + 101824 x5 + 107765 x6
       + 95133 x7 + 91081 x8 + 106721 x9 + 108707 x10 + 104281 x11 + 96002 x12
       + 104486 x13 + 106511 x14 + 106666 x15 + 98594 x16 + 95632 x17
       + 95962 x18 + 105189 x19 + 106012 x20 + 90930 x21 + 109733 x22
       + 97508 x23 + 101229 x24 + 100642 x25 + 94151 x26 + 91631 x27
       + 95385 x28 + 106538 x29 + 94447 x30 + 103196 x31 + 109560 x32
       + 106769 x33 + 90284 x34 + 104116 x35 + 91793 x36 + 94300 x37
       + 90033 x38 + 108236 x39 + 100608 x40 + 95877 x41 + 100563 x42
       + 101213 x43 + 102478 x44 + 100410 x45 + 98233 x46 + 109069 x47
       + 97343 x48 + 103160 x49 + 96342 x50 + 94455 x51 + 93730 x52
       + 102795 x53 + 96901 x54 + 105813 x55 + 102565 x56 + 99880 x57
       + 96824 x58 + 90495 x59 + 106377 x60 + 90122 x61 + 100936 x62
       + 94011 x63 + 93636 x64 + 96133 x65 + 108314 x66 + 103715 x67
       + 109921 x68 + 94952 x69 + 104296 x70 + 108700 x71 + 107749 x72
       + 93253 x73 + 107163 x74 + 102787 x75 + 104938 x76 + 101325 x77
       + 107466 x78 + 104740 x79 + 103952 x80 + 98734 x81 + 107191 x82
       + 105066 x83 + 108074 x84 + 97575 x85 + 99721 x86 + 104487 x87
       + 99375 x88 + 92812 x89 + 100961 x90 + 105674 x91 + 98153 x92
       + 103471 x93 + 106990 x94 + 96824 x95 + 103815 x96 + 93291 x97
       + 94270 x98 + 103368 x99 + 103179 x100 + 103708 x101 + 108009 x102
       + 109715 x103 + 93280 x104 + 106441 x105 + 97727 x106 + 95074 x107
       + 97613 x108 + 96172 x109 + 108746 x110 + 91299 x111 + 101600 x112
       + 94927 x113 + 106265 x114 + 93266 x115 + 95040 x116 + 98839 x117
       + 105429 x118 + 107029 x119 + 102279 x120 + 98247 x121 + 109160 x122
       + 91901 x123 + 102689 x124 + 106169 x125 + 104441 x126 + 91450 x127
       + 100837 x128 + 91261 x129 + 107549 x130 + 98372 x131 + 109845 x132
       + 107949 x133 + 99878 x134 + 95082 x135 + 95344 x136 + 98634 x137
       + 97696 x138 + 104383 x139 + 91987 x140 + 90697 x141 + 91567 x142
       + 92703 x143 + 109667 x144 + 104500 x145 + 94149 x146 + 92209 x147
       + 92372 x148 + 107642 x149 + 108688 x150 + 94779 x151 + 107102 x152
       + 102873 x153 + 108019 x154 + 102813 x155 + 92563 x156 + 93079 x157
       + 90049 x158 + 94033 x159 + 100296 x160 + 91639 x161 + 101356 x162
       + 99210 x163 + 98128 x164 + 106211 x165 + 93074 x166 + 95734 x167
       + 92087 x168 + 90170 x169 + 97469 x170 + 100215 x171 + 94094 x172
       + 90783 x173 + 97686 x174 + 101746 x175 + 109414 x176 + 97368 x177
       + 107861 x178 + 99524 x179 + 107189 x180 + 92728 x181 + 103738 x182
       + 97838 x183 + 97409 x184 + 103149 x185 + 99237 x186 + 91216 x187
       + 93296 x188 + 95000 x189 + 105418 x190 + 103081 x191 + 109372 x192
       + 99201 x193 + 94825 x194 + 102343 x195 + 92363 x196 + 98804 x197
       + 106431 x198 + 94089 x199 + 104609 x200 + 97793 x201 + 97700 x202
       + 105928 x203 + 100451 x204 + 108601 x205 + 97858 x206 + 107460 x207
       + 92122 x208 + 97253 x209 + 104683 x210 + 103378 x211 + 92674 x212
       + 94952 x213 + 96007 x214 + 103979 x215 + 104554 x216 + 106867 x217
       + 97287 x218 + 95593 x219 + 108960 x220 + 93569 x221 + 98255 x222
       + 102253 x223 + 105373 x224 + 105747 x225 + 90811 x226 + 104101 x227
       + 92153 x228 + 94517 x229 + 96830 x230 + 90722 x231 + 108139 x232
       + 102802 x233 + 94744 x234 + 96080 x235 + 93185 x236 + 102031 x237
       + 94572 x238 + 95769 x239 + 94182 x240 + 92792 x241 + 92455 x242
       + 107050 x243 + 102335 x244 + 98100 x245 + 97857 x246 + 97428 x247
       + 97348 x248 + 103573 x249 + 109234 x250 + 97278 x251 + 98531 x252
       + 102924 x253 + 101487 x254 + 98774 x255 + 108821 x256 + 100858 x257
       + 101959 x258 + 108678 x259 + 108000 x260 + 94586 x261 + 106851 x262
       + 103143 x263 + 100271 x264 + 100034 x265 + 93178 x266 + 92100 x267
       + 103981 x268 + 108192 x269 + 96503 x270 + 106351 x271 + 90951 x272
       + 95480 x273 + 95382 x274 + 91237 x275 + 107525 x276 + 96256 x277
       + 95343 x278 + 106584 x279 + 104232 x280 + 100013 x281 + 100631 x282
       + 100959 x283 + 102524 x284 + 91916 x285 + 103841 x286 + 97167 x287
       + 94283 x288 + 102064 x289 + 101082 x290 + 95493 x291 + 102596 x292
       + 106242 x293 + 93454 x294 + 91357 x295 + 90768 x296 + 108897 x297
       + 104406 x298 + 94845 x299 + 90635 x300 + 90918 x301 + 108273 x302
       + 94420 x303 + 92023 x304 + 101717 x305 + 97588 x306 + 105286 x307
       + 104352 x308 + 92194 x309 + 94897 x310 + 101392 x311 + 108656 x312
       + 105065 x313 + 100335 x314 + 108918 x315 + 102476 x316 + 103742 x317
       + 92961 x318 + 91461 x319 + 91584 x320 + 105793 x321 + 92380 x322
       + 103955 x323 + 90415 x324 + 99839 x325 + 91129 x326 + 109641 x327
       + 107984 x328 + 92106 x329 + 98568 x330 + 91648 x331 + 92085 x332
       + 103532 x333 + 91276 x334 + 95850 x335 + 101630 x336 + 98686 x337
       + 109832 x338 + 102245 x339 + 94661 x340 + 93689 x341 + 97317 x342
       + 98415 x343 + 97854 x344 + 101944 x345 + 101005 x346 + 100479 x347
       + 102289 x348 + 93637 x349 + 95458 x350 + 92580 x351 + 94583 x352
       + 94243 x353 + 104616 x354 + 102188 x355 + 92054 x356 + 103421 x357
       + 98092 x358 + 95271 x359 + 105802 x360 + 107612 x361 + 92240 x362
       + 101345 x363 + 92247 x364 + 104227 x365 + 105093 x366 + 101169 x367
       + 100346 x368 + 109575 x369 + 99169 x370 + 96585 x371 + 97681 x372
       + 92617 x373 + 91892 x374 + 90352 x375 + 90735 x376 + 109368 x377
       + 102197 x378 + 90581 x379 + 94978 x380 + 101133 x381 + 97284 x382
       + 106753 x383 + 98498 x384 + 105001 x385 + 96960 x386 + 107274 x387
       + 106729 x388 + 90749 x389 + 92105 x390 + 102138 x391 + 95171 x392
       + 104810 x393 + 98459 x394 + 98524 x395 + 92057 x396 + 108937 x397
       + 97315 x398 + 91993 x399 + 103549 x400 + 100299 x401 + 97053 x402
       + 99572 x403 + 92179 x404 + 106152 x405 + 100739 x406 + 103060 x407
       + 97864 x408 + 107235 x409 + 99641 x410 + 105015 x411 + 90159 x412
       + 92847 x413 + 103406 x414 + 98323 x415 + 91981 x416 + 108344 x417
       + 93203 x418 + 96957 x419 + 109635 x420 + 104582 x421 + 101554 x422
       + 97698 x423 + 107939 x424 + 108516 x425 + 97046 x426 + 108183 x427
       + 92433 x428 + 95198 x429 + 93160 x430 + 98920 x431 + 93269 x432
       + 92684 x433 + 93765 x434 + 103566 x435 + 106435 x436 + 98250 x437
       + 101769 x438 + 103883 x439 + 99750 x440 + 106837 x441 + 91936 x442
       + 93700 x443 + 93423 x444 + 90810 x445 + 104076 x446 + 99611 x447
       + 97933 x448 + 103846 x449 + 108617 x450 + 92975 x451 + 100667 x452
       + 106692 x453 + 93576 x454 + 94215 x455 + 98718 x456 + 104869 x457
       + 92573 x458 + 101145 x459 + 106220 x460 + 104100 x461 + 101733 x462
       + 107309 x463 + 109366 x464 + 102980 x465 + 99401 x466 + 95253 x467
       + 109955 x468 + 90977 x469 + 106883 x470 + 92002 x471 + 91922 x472
       + 107561 x473 + 98656 x474 + 95851 x475 + 106047 x476 + 103439 x477
       + 90123 x478 + 95384 x479 + 94856 x480 + 101678 x481 + 102801 x482
       + 103048 x483 + 99389 x484 + 95760 x485 + 96839 x486 + 107677 x487
       + 94874 x488 + 91455 x489 + 106442 x490 + 93024 x491 + 93287 x492
       + 99896 x493 + 94997 x494 + 92652 x495 + 107358 x496 + 100359 x497
       + 103634 x498 + 95489 x499 + 283346 x500 + 382858 x501 + 430148 x502
       + 381308 x503 + 404694 x504 + 389348 x505 + 439005 x506 + 408771 x507
       + 431404 x508 + 431413 x509 + 422867 x510 + 429715 x511 + 385720 x512
       + 418648 x513 + 423996 x514 + 422198 x515 + 383752 x516 + 382120 x517
       + 388036 x518 + 395351 x519 + 428674 x520 + 416791 x521 + 382785 x522
       + 417566 x523 + 366421 x524 + 430332 x525 + 395545 x526 + 431589 x527
       + 433900 x528 + 438900 x529 + 400062 x530 + 374614 x531 + 407921 x532
       + 387392 x533 + 365343 x534 + 412201 x535 + 408133 x536 + 436167 x537
       + 367503 x538 + 393046 x539 + 439846 x540 + 428166 x541 + 402106 x542
       + 377309 x543 + 382659 x544 + 429819 x545 + 438301 x546 + 364430 x547
       + 378451 x548 + 426071 x549 + 86605 x550
Subject To
 c1:   - x3 + x9 + x17 + x25 - x27 - x35 - x42 + x48  = 0
 c2:   - x53 + x59 + x67 + x75 - x77 - x85 - x92 + x98  = 0
 c3:   - x103 + x109 + x117 + x125 - x127 - x135 - x142 + x148  = 0
 c4:   - x153 + x159 + x167 + x175 - x177 - x185 - x192 + x198  = 0
 c5:   - x203 + x209 + x217 + x225 - x227 - x235 - x242 + x248  = 0
 c6:   - x253 + x259 + x267 + x275 - x277 - x285 - x292 + x298  = 0
 c7:   - x303 + x309 + x317 + x325 - x327 - x335 - x342 + x348  = -1
 c8:   - x353 + x359 + x367 + x375 - x377 - x385 - x392 + x398  = 0
 c9:   - x403 + x409 + x417 + x425 - x427 - x435 - x442 + x448  = 1
 c10:  - x453 + x459 + x467 + x475 - x477 - x485 - x492 + x498  = -1
 c11:  x6 - x8 - x23 + x30 + x31 + x33 + x34 - x38 - x40  = 0
 c12:  x56 - x58 - x73 + x80 + x81 + x83 + x84 - x88 - x90  = 0
 c13:  x106 - x108 - x123 + x130 + x131 + x133 + x134 - x138 - x140  = 0
 c14:  x156 - x158 - x173 + x180 + x181 + x183 + x184 - x188 - x190  = 0
 c15:  x206 - x208 - x223 + x230 + x231 + x233 + x234 - x238 - x240  = 0
 c16:  x256 - x258 - x273 + x280 + x281 + x283 + x284 - x288 - x290  = 0
 c17:  x306 - x308 - x323 + x330 + x331 + x333 + x334 - x338 - x340  = 0
 c18:  x356 - x358 - x373 + x380 + x381 + x383 + x384 - x388 - x390  = 0
 c19:  x406 - x408 - x423 + x430 + x431 + x433 + x434 - x438 - x440  = 0
 c20:  x456 - x458 - x473 + x480 + x481 + x483 + x484 - x488 - x490  = 0
 c21:  x3 + x24 + x40 - x44  = -1
 c22:  x53 + x74 + x90 - x94  = 0
 c23:  x103 + x124 + x140 - x144  = 0
 c24:  x153 + x174 + x190 - x194  = 0
 c25:  x203 + x224 + x240 - x244  = 0
 c26:  x253 + x274 + x290 - x294  = 0
 c27:  x303 + x324 + x340 - x344  = 0
 c28:  x353 + x374 + x390 - x394  = 0
 c29:  x403 + x424 + x440 - x444  = 0
 c30:  x453 + x474 + x490 - x494  = 0
 c31:  - x13 - x39 + x41 + x50  = 0
 c32:  - x63 - x89 + x91 + x100  = 0
 c33:  - x113 - x139 + x141 + x150  = 1
 c34:  - x163 - x189 + x191 + x200  = 0
 c35:  - x213 - x239 + x241 + x250  = 0
 c36:  - x263 - x289 + x291 + x300  = 1
 c37:  - x313 - x339 + x341 + x350  = 0
 c38:  - x363 - x389 + x391 + x400  = 0
 c39:  - x413 - x439 + x441 + x450  = 0
 c40:  - x463 - x489 + x491 + x500  = 0
 c41:  x1 - x18 - x26  = 0
 c42:  x51 - x68 - x76  = 0
 c43:  x101 - x118 - x126  = 0
 c44:  x151 - x168 - x176  = -1
 c45:  x201 - x218 - x226  = 0
 c46:  x251 - x268 - x276  = 0
 c47:  x301 - x318 - x326  = 0
 c48:  x351 - x368 - x376  = 0
 c49:  x401 - x418 - x426  = 0
 c50:  x451 - x468 - x476  = 1
 c51:  - x7 - x10 + x11 + x13 + x16 - x17 + x26 + x36 + x42  = 0
 c52:  - x57 - x60 + x61 + x63 + x66 - x67 + x76 + x86 + x92  = 0
 c53:  - x107 - x110 + x111 + x113 + x116 - x117 + x126 + x136 + x142  = 0
 c54:  - x157 - x160 + x161 + x163 + x166 - x167 + x176 + x186 + x192  = 0
 c55:  - x207 - x210 + x211 + x213 + x216 - x217 + x226 + x236 + x242  = 0
 c56:  - x257 - x260 + x261 + x263 + x266 - x267 + x276 + x286 + x292  = 0
 c57:  - x307 - x310 + x311 + x313 + x316 - x317 + x326 + x336 + x342  = 0
 c58:  - x357 - x360 + x361 + x363 + x366 - x367 + x376 + x386 + x392  = 0
 c59:  - x407 - x410 + x411 + x413 + x416 - x417 + x426 + x436 + x442  = 0
 c60:  - x457 - x460 + x461 + x463 + x466 - x467 + x476 + x486 + x492  = 0
 c61:  - x2 - x5 + x12 - x15 + x22 - x32 + x49  = 0
 c62:  - x52 - x55 + x62 - x65 + x72 - x82 + x99  = 0
 c63:  - x102 - x105 + x112 - x115 + x122 - x132 + x149  = 0
 c64:  - x152 - x155 + x162 - x165 + x172 - x182 + x199  = 1
 c65:  - x202 - x205 + x212 - x215 + x222 - x232 + x249  = 0
 c66:  - x252 - x255 + x262 - x265 + x272 - x282 + x299  = 0
 c67:  - x302 - x305 + x312 - x315 + x322 - x332 + x349  = 0
 c68:  - x352 - x355 + x362 - x365 + x372 - x382 + x399  = 0
 c69:  - x402 - x405 + x412 - x415 + x422 - x432 + x449  = 0
 c70:  - x452 - x455 + x462 - x465 + x472 - x482 + x499  = 0
 c71:  - x4 + x20 - x31 + x32 - x46  = 0
 c72:  - x54 + x70 - x81 + x82 - x96  = 0
 c73:  - x104 + x120 - x131 + x132 - x146  = 0
 c74:  - x154 + x170 - x181 + x182 - x196  = 0
 c75:  - x204 + x220 - x231 + x232 - x246  = 0
 c76:  - x254 + x270 - x281 + x282 - x296  = -1
 c77:  - x304 + x320 - x331 + x332 - x346  = 0
 c78:  - x354 + x370 - x381 + x382 - x396  = 0
 c79:  - x404 + x420 - x431 + x432 - x446  = 0
 c80:  - x454 + x470 - x481 + x482 - x496  = 0
 c81:  - x1 - x6 + x14 + x15 - x20 + x21 + x23 - x28 + x35 - x47  = 0
 c82:  - x51 - x56 + x64 + x65 - x70 + x71 + x73 - x78 + x85 - x97  = 0
 c83:  - x101 - x106 + x114 + x115 - x120 + x121 + x123 - x128 + x135 - x147
        = 0
 c84:  - x151 - x156 + x164 + x165 - x170 + x171 + x173 - x178 + x185 - x197
        = 0
 c85:  - x201 - x206 + x214 + x215 - x220 + x221 + x223 - x228 + x235 - x247
        = 0
 c86:  - x251 - x256 + x264 + x265 - x270 + x271 + x273 - x278 + x285 - x297
        = 0
 c87:  - x301 - x306 + x314 + x315 - x320 + x321 + x323 - x328 + x335 - x347
        = 0
 c88:  - x351 - x356 + x364 + x365 - x370 + x371 + x373 - x378 + x385 - x397
        = 0
 c89:  - x401 - x406 + x414 + x415 - x420 + x421 + x423 - x428 + x435 - x447
        = -1
 c90:  - x451 - x456 + x464 + x465 - x470 + x471 + x473 - x478 + x485 - x497
        = 0
 c91:  x18 - x25 - x29 + x38 + x39 - x41 + x43  = 0
 c92:  x68 - x75 - x79 + x88 + x89 - x91 + x93  = 0
 c93:  x118 - x125 - x129 + x138 + x139 - x141 + x143  = -1
 c94:  x168 - x175 - x179 + x188 + x189 - x191 + x193  = 0
 c95:  x218 - x225 - x229 + x238 + x239 - x241 + x243  = -1
 c96:  x268 - x275 - x279 + x288 + x289 - x291 + x293  = 0
 c97:  x318 - x325 - x329 + x338 + x339 - x341 + x343  = 0
 c98:  x368 - x375 - x379 + x388 + x389 - x391 + x393  = 0
 c99:  x418 - x425 - x429 + x438 + x439 - x441 + x443  = 0
 c100: x468 - x475 - x479 + x488 + x489 - x491 + x493  = 0
 c101: x2 - x11 - x19 + x28 - x30 - x37 - x43  = 0
 c102: x52 - x61 - x69 + x78 - x80 - x87 - x93  = 1
 c103: x102 - x111 - x119 + x128 - x130 - x137 - x143  = 0
 c104: x152 - x161 - x169 + x178 - x180 - x187 - x193  = 0
 c105: x202 - x211 - x219 + x228 - x230 - x237 - x243  = 1
 c106: x252 - x261 - x269 + x278 - x280 - x287 - x293  = 0
 c107: x302 - x311 - x319 + x328 - x330 - x337 - x343  = 0
 c108: x352 - x361 - x369 + x378 - x380 - x387 - x393  = 0
 c109: x402 - x411 - x419 + x428 - x430 - x437 - x443  = 0
 c110: x452 - x461 - x469 + x478 - x480 - x487 - x493  = 0
 c111: - x9 + x19 - x21 + x29 - x49  = 0
 c112: - x59 + x69 - x71 + x79 - x99  = -1
 c113: - x109 + x119 - x121 + x129 - x149  = 0
 c114: - x159 + x169 - x171 + x179 - x199  = 0
 c115: - x209 + x219 - x221 + x229 - x249  = 0
 c116: - x259 + x269 - x271 + x279 - x299  = 0
 c117: - x309 + x319 - x321 + x329 - x349  = 0
 c118: - x359 + x369 - x371 + x379 - x399  = 0
 c119: - x409 + x419 - x421 + x429 - x449  = 0
 c120: - x459 + x469 - x471 + x479 - x499  = 0
 c121: x7 - x12 - x16 + x27 - x33 + x37 - x45 - x50  = 1
 c122: x57 - x62 - x66 + x77 - x83 + x87 - x95 - x100  = 0
 c123: x107 - x112 - x116 + x127 - x133 + x137 - x145 - x150  = 0
 c124: x157 - x162 - x166 + x177 - x183 + x187 - x195 - x200  = 0
 c125: x207 - x212 - x216 + x227 - x233 + x237 - x245 - x250  = 0
 c126: x257 - x262 - x266 + x277 - x283 + x287 - x295 - x300  = 0
 c127: x307 - x312 - x316 + x327 - x333 + x337 - x345 - x350  = 1
 c128: x357 - x362 - x366 + x377 - x383 + x387 - x395 - x400  = 0
 c129: x407 - x412 - x416 + x427 - x433 + x437 - x445 - x450  = 0
 c130: x457 - x462 - x466 + x477 - x483 + x487 - x495 - x500  = 0
 c131: x8 + x10 - x14 - x36 + x46 + x47 - x48  = 0
 c132: x58 + x60 - x64 - x86 + x96 + x97 - x98  = 0
 c133: x108 + x110 - x114 - x136 + x146 + x147 - x148  = 0
 c134: x158 + x160 - x164 - x186 + x196 + x197 - x198  = 0
 c135: x208 + x210 - x214 - x236 + x246 + x247 - x248  = 0
 c136: x258 + x260 - x264 - x286 + x296 + x297 - x298  = 0
 c137: x308 + x310 - x314 - x336 + x346 + x347 - x348  = 0
 c138: x358 + x360 - x364 - x386 + x396 + x397 - x398  = -1
 c139: x408 + x410 - x414 - x436 + x446 + x447 - x448  = 0
 c140: x458 + x460 - x464 - x486 + x496 + x497 - x498  = 0
 c141: x4 + x5 - x22 - x24 - x34 + x44 + x45  = 0
 c142: x54 + x55 - x72 - x74 - x84 + x94 + x95  = 0
 c143: x104 + x105 - x122 - x124 - x134 + x144 + x145  = 0
 c144: x154 + x155 - x172 - x174 - x184 + x194 + x195  = 0
 c145: x204 + x205 - x222 - x224 - x234 + x244 + x245  = 0
 c146: x254 + x255 - x272 - x274 - x284 + x294 + x295  = 0
 c147: x304 + x305 - x322 - x324 - x334 + x344 + x345  = 0
 c148: x354 + x355 - x372 - x374 - x384 + x394 + x395  = 1
 c149: x404 + x405 - x422 - x424 - x434 + x444 + x445  = 0
 c150: x454 + x455 - x472 - x474 - x484 + x494 + x495  = 0
 c151: 4 x1 + 4 x51 + 4 x101 + 4 x151 + 4 x201 + 4 x251 + 4 x301 + 4 x351
       + 4 x401 + 4 x451 - 5 x501 <= 0
 c152: 4 x2 + 4 x52 + 4 x102 + 4 x152 + 4 x202 + 4 x252 + 4 x302 + 4 x352
       + 4 x402 + 4 x452 - 5 x502 <= 0
 c153: 4 x3 + 4 x53 + 4 x103 + 4 x153 + 4 x203 + 4 x253 + 4 x303 + 4 x353
       + 4 x403 + 4 x453 - 5 x503 <= 0
 c154: 4 x4 + 4 x54 + 4 x104 + 4 x154 + 4 x204 + 4 x254 + 4 x304 + 4 x354
       + 4 x404 + 4 x454 - 5 x504 <= 0
 c155: 4 x5 + 4 x55 + 4 x105 + 4 x155 + 4 x205 + 4 x255 + 4 x305 + 4 x355
       + 4 x405 + 4 x455 - 5 x505 <= 0
 c156: 4 x6 + 4 x56 + 4 x106 + 4 x156 + 4 x206 + 4 x256 + 4 x306 + 4 x356
       + 4 x406 + 4 x456 - 5 x506 <= 0
 c157: 4 x7 + 4 x57 + 4 x107 + 4 x157 + 4 x207 + 4 x257 + 4 x307 + 4 x357
       + 4 x407 + 4 x457 - 5 x507 <= 0
 c158: 4 x8 + 4 x58 + 4 x108 + 4 x158 + 4 x208 + 4 x258 + 4 x308 + 4 x358
       + 4 x408 + 4 x458 - 5 x508 <= 0
 c159: 4 x9 + 4 x59 + 4 x109 + 4 x159 + 4 x209 + 4 x259 + 4 x309 + 4 x359
       + 4 x409 + 4 x459 - 5 x509 <= 0
 c160: 4 x10 + 4 x60 + 4 x110 + 4 x160 + 4 x210 + 4 x260 + 4 x310 + 4 x360
       + 4 x410 + 4 x460 - 5 x510 <= 0
 c161: 4 x11 + 4 x61 + 4 x111 + 4 x161 + 4 x211 + 4 x261 + 4 x311 + 4 x361
       + 4 x411 + 4 x461 - 5 x511 <= 0
 c162: 4 x12 + 4 x62 + 4 x112 + 4 x162 + 4 x212 + 4 x262 + 4 x312 + 4 x362
       + 4 x412 + 4 x462 - 5 x512 <= 0
 c163: 4 x13 + 4 x63 + 4 x113 + 4 x163 + 4 x213 + 4 x263 + 4 x313 + 4 x363
       + 4 x413 + 4 x463 - 5 x513 <= 0
 c164: 4 x14 + 4 x64 + 4 x114 + 4 x164 + 4 x214 + 4 x264 + 4 x314 + 4 x364
       + 4 x414 + 4 x464 - 5 x514 <= 0
 c165: 4 x15 + 4 x65 + 4 x115 + 4 x165 + 4 x215 + 4 x265 + 4 x315 + 4 x365
       + 4 x415 + 4 x465 - 5 x515 <= 0
 c166: 4 x16 + 4 x66 + 4 x116 + 4 x166 + 4 x216 + 4 x266 + 4 x316 + 4 x366
       + 4 x416 + 4 x466 - 5 x516 <= 0
 c167: 4 x17 + 4 x67 + 4 x117 + 4 x167 + 4 x217 + 4 x267 + 4 x317 + 4 x367
       + 4 x417 + 4 x467 - 5 x517 <= 0
 c168: 4 x18 + 4 x68 + 4 x118 + 4 x168 + 4 x218 + 4 x268 + 4 x318 + 4 x368
       + 4 x418 + 4 x468 - 5 x518 <= 0
 c169: 4 x19 + 4 x69 + 4 x119 + 4 x169 + 4 x219 + 4 x269 + 4 x319 + 4 x369
       + 4 x419 + 4 x469 - 5 x519 <= 0
 c170: 4 x20 + 4 x70 + 4 x120 + 4 x170 + 4 x220 + 4 x270 + 4 x320 + 4 x370
       + 4 x420 + 4 x470 - 5 x520 <= 0
 c171: 4 x21 + 4 x71 + 4 x121 + 4 x171 + 4 x221 + 4 x271 + 4 x321 + 4 x371
       + 4 x421 + 4 x471 - 5 x521 <= 0
 c172: 4 x22 + 4 x72 + 4 x122 + 4 x172 + 4 x222 + 4 x272 + 4 x322 + 4 x372
       + 4 x422 + 4 x472 - 5 x522 <= 0
 c173: 4 x23 + 4 x73 + 4 x123 + 4 x173 + 4 x223 + 4 x273 + 4 x323 + 4 x373
       + 4 x423 + 4 x473 - 5 x523 <= 0
 c174: 4 x24 + 4 x74 + 4 x124 + 4 x174 + 4 x224 + 4 x274 + 4 x324 + 4 x374
       + 4 x424 + 4 x474 - 5 x524 <= 0
 c175: 4 x25 + 4 x75 + 4 x125 + 4 x175 + 4 x225 + 4 x275 + 4 x325 + 4 x375
       + 4 x425 + 4 x475 - 5 x525 <= 0
 c176: 4 x26 + 4 x76 + 4 x126 + 4 x176 + 4 x226 + 4 x276 + 4 x326 + 4 x376
       + 4 x426 + 4 x476 - 5 x526 <= 0
 c177: 4 x27 + 4 x77 + 4 x127 + 4 x177 + 4 x227 + 4 x277 + 4 x327 + 4 x377
       + 4 x427 + 4 x477 - 5 x527 <= 0
 c178: 4 x28 + 4 x78 + 4 x128 + 4 x178 + 4 x228 + 4 x278 + 4 x328 + 4 x378
       + 4 x428 + 4 x478 - 5 x528 <= 0
 c179: 4 x29 + 4 x79 + 4 x129 + 4 x179 + 4 x229 + 4 x279 + 4 x329 + 4 x379
       + 4 x429 + 4 x479 - 5 x529 <= 0
 c180: 4 x30 + 4 x80 + 4 x130 + 4 x180 + 4 x230 + 4 x280 + 4 x330 + 4 x380
       + 4 x430 + 4 x480 - 5 x530 <= 0
 c181: 4 x31 + 4 x81 + 4 x131 + 4 x181 + 4 x231 + 4 x281 + 4 x331 + 4 x381
       + 4 x431 + 4 x481 - 5 x531 <= 0
 c182: 4 x32 + 4 x82 + 4 x132 + 4 x182 + 4 x232 + 4 x282 + 4 x332 + 4 x382
       + 4 x432 + 4 x482 - 5 x532 <= 0
 c183: 4 x33 + 4 x83 + 4 x133 + 4 x183 + 4 x233 + 4 x283 + 4 x333 + 4 x383
       + 4 x433 + 4 x483 - 5 x533 <= 0
 c184: 4 x34 + 4 x84 + 4 x134 + 4 x184 + 4 x234 + 4 x284 + 4 x334 + 4 x384
       + 4 x434 + 4 x484 - 5 x534 <= 0
 c185: 4 x35 + 4 x85 + 4 x135 + 4 x185 + 4 x235 + 4 x285 + 4 x335 + 4 x385
       + 4 x435 + 4 x485 - 5 x535 <= 0
 c186: 4 x36 + 4 x86 + 4 x136 + 4 x186 + 4 x236 + 4 x286 + 4 x336 + 4 x386
       + 4 x436 + 4 x486 - 5 x536 <= 0
 c187: 4 x37 + 4 x87 + 4 x137 + 4 x187 + 4 x237 + 4 x287 + 4 x337 + 4 x387
       + 4 x437 + 4 x487 - 5 x537 <= 0
 c188: 4 x38 + 4 x88 + 4 x138 + 4 x188 + 4 x238 + 4 x288 + 4 x338 + 4 x388
       + 4 x438 + 4 x488 - 5 x538 <= 0
 c189: 4 x39 + 4 x89 + 4 x139 + 4 x189 + 4 x239 + 4 x289 + 4 x339 + 4 x389
       + 4 x439 + 4 x489 - 5 x539 <= 0
 c190: 4 x40 + 4 x90 + 4 x140 + 4 x190 + 4 x240 + 4 x290 + 4 x340 + 4 x390
       + 4 x440 + 4 x490 - 5 x540 <= 0
 c191: 4 x41 + 4 x91 + 4 x141 + 4 x191 + 4 x241 + 4 x291 + 4 x341 + 4 x391
       + 4 x441 + 4 x491 - 5 x541 <= 0
 c192: 4 x42 + 4 x92 + 4 x142 + 4 x192 + 4 x242 + 4 x292 + 4 x342 + 4 x392
       + 4 x442 + 4 x492 - 5 x542 <= 0
 c193: 4 x43 + 4 x93 + 4 x143 + 4 x193 + 4 x243 + 4 x293 + 4 x343 + 4 x393
       + 4 x443 + 4 x493 - 5 x543 <= 0
 c194: 4 x44 + 4 x94 + 4 x144 + 4 x194 + 4 x244 + 4 x294 + 4 x344 + 4 x394
       + 4 x444 + 4 x494 - 5 x544 <= 0
 c195: 4 x45 + 4 x95 + 4 x145 + 4 x195 + 4 x245 + 4 x295 + 4 x345 + 4 x395
       + 4 x445 + 4 x495 - 5 x545 <= 0
 c196: 4 x46 + 4 x96 + 4 x146 + 4 x196 + 4 x246 + 4 x296 + 4 x346 + 4 x396
       + 4 x446 + 4 x496 - 5 x546 <= 0
 c197: 4 x47 + 4 x97 + 4 x147 + 4 x197 + 4 x247 + 4 x297 + 4 x347 + 4 x397
       + 4 x447 + 4 x497 - 5 x547 <= 0
 c198: 4 x48 + 4 x98 + 4 x148 + 4 x198 + 4 x248 + 4 x298 + 4 x348 + 4 x398
       + 4 x448 + 4 x498 - 5 x548 <= 0
 c199: 4 x49 + 4 x99 + 4 x149 + 4 x199 + 4 x249 + 4 x299 + 4 x349 + 4 x399
       + 4 x449 + 4 x499 - 5 x549 <= 0
 c200: 4 x50 + 4 x100 + 4 x150 + 4 x200 + 4 x250 + 4 x300 + 4 x350 + 4 x400
       + 4 x450 + 4 x500 - 5 x550 <= 0
Bounds
 0 <= x1 <= 1
 0 <= x2 <= 1
 0 <= x3 <= 1
 0 <= x4 <= 1
 0 <= x5 <= 1
 0 <= x6 <= 1
 0 <= x7 <= 1
 0 <= x8 <= 1
 0 <= x9 <= 1
 0 <= x10 <= 1
 0 <= x11 <= 1
 0 <= x12 <= 1
 0 <= x13 <= 1
 0 <= x14 <= 1
 0 <= x15 <= 1
 0 <= x16 <= 1
 0 <= x17 <= 1
 0 <= x18 <= 1
 0 <= x19 <= 1
 0 <= x20 <= 1
 0 <= x21 <= 1
 0 <= x22 <= 1
 0 <= x23 <= 1
 0 <= x24 <= 1
 0 <= x25 <= 1
 0 <= x26 <= 1
 0 <= x27 <= 1
 0 <= x28 <= 1
 0 <= x29 <= 1
 0 <= x30 <= 1
 0 <= x31 <= 1
 0 <= x32 <= 1
 0 <= x33 <= 1
 0 <= x34 <= 1
 0 <= x35 <= 1
 0 <= x36 <= 1
 0 <= x37 <= 1
 0 <= x38 <= 1
 0 <= x39 <= 1
 0 <= x40 <= 1
 0 <= x41 <= 1
 0 <= x42 <= 1
 0 <= x43 <= 1
 0 <= x44 <= 1
 0 <= x45 <= 1
 0 <= x46 <= 1
 0 <= x47 <= 1
 0 <= x48 <= 1
 0 <= x49 <= 1
 0 <= x50 <= 1
 0 <= x51 <= 1
 0 <= x52 <= 1
 0 <= x53 <= 1
 0 <= x54 <= 1
 0 <= x55 <= 1
 0 <= x56 <= 1
 0 <= x57 <= 1
 0 <= x58 <= 1
 0 <= x59 <= 1
 0 <= x60 <= 1
 0 <= x61 <= 1
 0 <= x62 <= 1
 0 <= x63 <= 1
 0 <= x64 <= 1
 0 <= x65 <= 1
 0 <= x66 <= 1
 0 <= x67 <= 1
 0 <= x68 <= 1
 0 <= x69 <= 1
 0 <= x70 <= 1
 0 <= x71 <= 1
 0 <= x72 <= 1
 0 <= x73 <= 1
 0 <= x74 <= 1
 0 <= x75 <= 1
 0 <= x76 <= 1
 0 <= x77 <= 1
 0 <= x78 <= 1
 0 <= x79 <= 1
 0 <= x80 <= 1
 0 <= x81 <= 1
 0 <= x82 <= 1
 0 <= x83 <= 1
 0 <= x84 <= 1
 0 <= x85 <= 1
 0 <= x86 <= 1
 0 <= x87 <= 1
 0 <= x88 <= 1
 0 <= x89 <= 1
 0 <= x90 <= 1
 0 <= x91 <= 1
 0 <= x92 <= 1
 0 <= x93 <= 1
 0 <= x94 <= 1
 0 <= x95 <= 1
 0 <= x96 <= 1
 0 <= x97 <= 1
 0 <= x98 <= 1
 0 <= x99 <= 1
 0 <= x100 <= 1
 0 <= x101 <= 1
 0 <= x102 <= 1
 0 <= x103 <= 1
 0 <= x104 <= 1
 0 <= x105 <= 1
 0 <= x106 <= 1
 0 <= x107 <= 1
 0 <= x108 <= 1
 0 <= x109 <= 1
 0 <= x110 <= 1
 0 <= x111 <= 1
 0 <= x112 <= 1
 0 <= x113 <= 1
 0 <= x114 <= 1
 0 <= x115 <= 1
 0 <= x116 <= 1
 0 <= x117 <= 1
 0 <= x118 <= 1
 0 <= x119 <= 1
 0 <= x120 <= 1
 0 <= x121 <= 1
 0 <= x122 <= 1
 0 <= x123 <= 1
 0 <= x124 <= 1
 0 <= x125 <= 1
 0 <= x126 <= 1
 0 <= x127 <= 1
 0 <= x128 <= 1
 0 <= x129 <= 1
 0 <= x130 <= 1
 0 <= x131 <= 1
 0 <= x132 <= 1
 0 <= x133 <= 1
 0 <= x134 <= 1
 0 <= x135 <= 1
 0 <= x136 <= 1
 0 <= x137 <= 1
 0 <= x138 <= 1
 0 <= x139 <= 1
 0 <= x140 <= 1
 0 <= x141 <= 1
 0 <= x142 <= 1
 0 <= x143 <= 1
 0 <= x144 <= 1
 0 <= x145 <= 1
 0 <= x146 <= 1
 0 <= x147 <= 1
 0 <= x148 <= 1
 0 <= x149 <= 1
 0 <= x150 <= 1
 0 <= x151 <= 1
 0 <= x152 <= 1
 0 <= x153 <= 1
 0 <= x154 <= 1
 0 <= x155 <= 1
 0 <= x156 <= 1
 0 <= x157 <= 1
 0 <= x158 <= 1
 0 <= x159 <= 1
 0 <= x160 <= 1
 0 <= x161 <= 1
 0 <= x162 <= 1
 0 <= x163 <= 1
 0 <= x164 <= 1
 0 <= x165 <= 1
 0 <= x166 <= 1
 0 <= x167 <= 1
 0 <= x168 <= 1
 0 <= x169 <= 1
 0 <= x170 <= 1
 0 <= x171 <= 1
 0 <= x172 <= 1
 0 <= x173 <= 1
 0 <= x174 <= 1
 0 <= x175 <= 1
 0 <= x176 <= 1
 0 <= x177 <= 1
 0 <= x178 <= 1
 0 <= x179 <= 1
 0 <= x180 <= 1
 0 <= x181 <= 1
 0 <= x182 <= 1
 0 <= x183 <= 1
 0 <= x184 <= 1
 0 <= x185 <= 1
 0 <= x186 <= 1
 0 <= x187 <= 1
 0 <= x188 <= 1
 0 <= x189 <= 1
 0 <= x190 <= 1
 0 <= x191 <= 1
 0 <= x192 <= 1
 0 <= x193 <= 1
 0 <= x194 <= 1
 0 <= x195 <= 1
 0 <= x196 <= 1
 0 <= x197 <= 1
 0 <= x198 <= 1
 0 <= x199 <= 1
 0 <= x200 <= 1
 0 <= x201 <= 1
 0 <= x202 <= 1
 0 <= x203 <= 1
 0 <= x204 <= 1
 0 <= x205 <= 1
 0 <= x206 <= 1
 0 <= x207 <= 1
 0 <= x208 <= 1
 0 <= x209 <= 1
 0 <= x210 <= 1
 0 <= x211 <= 1
 0 <= x212 <= 1
 0 <= x213 <= 1
 0 <= x214 <= 1
 0 <= x215 <= 1
 0 <= x216 <= 1
 0 <= x217 <= 1
 0 <= x218 <= 1
 0 <= x219 <= 1
 0 <= x220 <= 1
 0 <= x221 <= 1
 0 <= x222 <= 1
 0 <= x223 <= 1
 0 <= x224 <= 1
 0 <= x225 <= 1
 0 <= x226 <= 1
 0 <= x227 <= 1
 0 <= x228 <= 1
 0 <= x229 <= 1
 0 <= x230 <= 1
 0 <= x231 <= 1
 0 <= x232 <= 1
 0 <= x233 <= 1
 0 <= x234 <= 1
 0 <= x235 <= 1
 0 <= x236 <= 1
 0 <= x237 <= 1
 0 <= x238 <= 1
 0 <= x239 <= 1
 0 <= x240 <= 1
 0 <= x241 <= 1
 0 <= x242 <= 1
 0 <= x243 <= 1
 0 <= x244 <= 1
 0 <= x245 <= 1
 0 <= x246 <= 1
 0 <= x247 <= 1
 0 <= x248 <= 1
 0 <= x249 <= 1
 0 <= x250 <= 1
 0 <= x251 <= 1
 0 <= x252 <= 1
 0 <= x253 <= 1
 0 <= x254 <= 1
 0 <= x255 <= 1
 0 <= x256 <= 1
 0 <= x257 <= 1
 0 <= x258 <= 1
 0 <= x259 <= 1
 0 <= x260 <= 1
 0 <= x261 <= 1
 0 <= x262 <= 1
 0 <= x263 <= 1
 0 <= x264 <= 1
 0 <= x265 <= 1
 0 <= x266 <= 1
 0 <= x267 <= 1
 0 <= x268 <= 1
 0 <= x269 <= 1
 0 <= x270 <= 1
 0 <= x271 <= 1
 0 <= x272 <= 1
 0 <= x273 <= 1
 0 <= x274 <= 1
 0 <= x275 <= 1
 0 <= x276 <= 1
 0 <= x277 <= 1
 0 <= x278 <= 1
 0 <= x279 <= 1
 0 <= x280 <= 1
 0 <= x281 <= 1
 0 <= x282 <= 1
 0 <= x283 <= 1
 0 <= x284 <= 1
 0 <= x285 <= 1
 0 <= x286 <= 1
 0 <= x287 <= 1
 0 <= x288 <= 1
 0 <= x289 <= 1
 0 <= x290 <= 1
 0 <= x291 <= 1
 0 <= x292 <= 1
 0 <= x293 <= 1
 0 <= x294 <= 1
 0 <= x295 <= 1
 0 <= x296 <= 1
 0 <= x297 <= 1
 0 <= x298 <= 1
 0 <= x299 <= 1
 0 <= x300 <= 1
 0 <= x301 <= 1
 0 <= x302 <= 1
 0 <= x303 <= 1
 0 <= x304 <= 1
 0 <= x305 <= 1
 0 <= x306 <= 1
 0 <= x307 <= 1
 0 <= x308 <= 1
 0 <= x309 <= 1
 0 <= x310 <= 1
 0 <= x311 <= 1
 0 <= x312 <= 1
 0 <= x313 <= 1
 0 <= x314 <= 1
 0 <= x315 <= 1
 0 <= x316 <= 1
 0 <= x317 <= 1
 0 <= x318 <= 1
 0 <= x319 <= 1
 0 <= x320 <= 1
 0 <= x321 <= 1
 0 <= x322 <= 1
 0 <= x323 <= 1
 0 <= x324 <= 1
 0 <= x325 <= 1
 0 <= x326 <= 1
 0 <= x327 <= 1
 0 <= x328 <= 1
 0 <= x329 <= 1
 0 <= x330 <= 1
 0 <= x331 <= 1
 0 <= x332 <= 1
 0 <= x333 <= 1
 0 <= x334 <= 1
 0 <= x335 <= 1
 0 <= x336 <= 1
 0 <= x337 <= 1
 0 <= x338 <= 1
 0 <= x339 <= 1
 0 <= x340 <= 1
 0 <= x341 <= 1
 0 <= x342 <= 1
 0 <= x343 <= 1
 0 <= x344 <= 1
 0 <= x345 <= 1
 0 <= x346 <= 1
 0 <= x347 <= 1
 0 <= x348 <= 1
 0 <= x349 <= 1
 0 <= x350 <= 1
 0 <= x351 <= 1
 0 <= x352 <= 1
 0 <= x353 <= 1
 0 <= x354 <= 1
 0 <= x355 <= 1
 0 <= x356 <= 1
 0 <= x357 <= 1
 0 <= x358 <= 1
 0 <= x359 <= 1
 0 <= x360 <= 1
 0 <= x361 <= 1
 0 <= x362 <= 1
 0 <= x363 <= 1
 0 <= x364 <= 1
 0 <= x365 <= 1
 0 <= x366 <= 1
 0 <= x367 <= 1
 0 <= x368 <= 1
 0 <= x369 <= 1
 0 <= x370 <= 1
 0 <= x371 <= 1
 0 <= x372 <= 1
 0 <= x373 <= 1
 0 <= x374 <= 1
 0 <= x375 <= 1
 0 <= x376 <= 1
 0 <= x377 <= 1
 0 <= x378 <= 1
 0 <= x379 <= 1
 0 <= x380 <= 1
 0 <= x381 <= 1
 0 <= x382 <= 1
 0 <= x383 <= 1
 0 <= x384 <= 1
 0 <= x385 <= 1
 0 <= x386 <= 1
 0 <= x387 <= 1
 0 <= x388 <= 1
 0 <= x389 <= 1
 0 <= x390 <= 1
 0 <= x391 <= 1
 0 <= x392 <= 1
 0 <= x393 <= 1
 0 <= x394 <= 1
 0 <= x395 <= 1
 0 <= x396 <= 1
 0 <= x397 <= 1
 0 <= x398 <= 1
 0 <= x399 <= 1
 0 <= x400 <= 1
 0 <= x401 <= 1
 0 <= x402 <= 1
 0 <= x403 <= 1
 0 <= x404 <= 1
 0 <= x405 <= 1
 0 <= x406 <= 1
 0 <= x407 <= 1
 0 <= x408 <= 1
 0 <= x409 <= 1
 0 <= x410 <= 1
 0 <= x411 <= 1
 0 <= x412 <= 1
 0 <= x413 <= 1
 0 <= x414 <= 1
 0 <= x415 <= 1
 0 <= x416 <= 1
 0 <= x417 <= 1
 0 <= x418 <= 1
 0 <= x419 <= 1
 0 <= x420 <= 1
 0 <= x421 <= 1
 0 <= x422 <= 1
 0 <= x423 <= 1
 0 <= x424 <= 1
 0 <= x425 <= 1
 0 <= x426 <= 1
 0 <= x427 <= 1
 0 <= x428 <= 1
 0 <= x429 <= 1
 0 <= x430 <= 1
 0 <= x431 <= 1
 0 <= x432 <= 1
 0 <= x433 <= 1
 0 <= x434 <= 1
 0 <= x435 <= 1
 0 <= x436 <= 1
 0 <= x437 <= 1
 0 <= x438 <= 1
 0 <= x439 <= 1
 0 <= x440 <= 1
 0 <= x441 <= 1
 0 <= x442 <= 1
 0 <= x443 <= 1
 0 <= x444 <= 1
 0 <= x445 <= 1
 0 <= x446 <= 1
 0 <= x447 <= 1
 0 <= x448 <= 1
 0 <= x449 <= 1
 0 <= x450 <= 1
 0 <= x451 <= 1
 0 <= x452 <= 1
 0 <= x453 <= 1
 0 <= x454 <= 1
 0 <= x455 <= 1
 0 <= x456 <= 1
 0 <= x457 <= 1
 0 <= x458 <= 1
 0 <= x459 <= 1
 0 <= x460 <= 1
 0 <= x461 <= 1
 0 <= x462 <= 1
 0 <= x463 <= 1
 0 <= x464 <= 1
 0 <= x465 <= 1
 0 <= x466 <= 1
 0 <= x467 <= 1
 0 <= x468 <= 1
 0 <= x469 <= 1
 0 <= x470 <= 1
 0 <= x471 <= 1
 0 <= x472 <= 1
 0 <= x473 <= 1
 0 <= x474 <= 1
 0 <= x475 <= 1
 0 <= x476 <= 1
 0 <= x477 <= 1
 0 <= x478 <= 1
 0 <= x479 <= 1
 0 <= x480 <= 1
 0 <= x481 <= 1
 0 <= x482 <= 1
 0 <= x483 <= 1
 0 <= x484 <= 1
 0 <= x485 <= 1
 0 <= x486 <= 1
 0 <= x487 <= 1
 0 <= x488 <= 1
 0 <= x489 <= 1
 0 <= x490 <= 1
 0 <= x491 <= 1
 0 <= x492 <= 1
 0 <= x493 <= 1
 0 <= x494 <= 1
 0 <= x495 <= 1
 0 <= x496 <= 1
 0 <= x497 <= 1
 0 <= x498 <= 1
 0 <= x499 <= 1
 0 <= x500 <= 1
 0 <= x501 <= 1
 0 <= x502 <= 1
 0 <= x503 <= 1
 0 <= x504 <= 1
 0 <= x505 <= 1
 0 <= x506 <= 1
 0 <= x507 <= 1
 0 <= x508 <= 1
 0 <= x509 <= 1
 0 <= x510 <= 1
 0 <= x511 <= 1
 0 <= x512 <= 1
 0 <= x513 <= 1
 0 <= x514 <= 1
 0 <= x515 <= 1
 0 <= x516 <= 1
 0 <= x517 <= 1
 0 <= x518 <= 1
 0 <= x519 <= 1
 0 <= x520 <= 1
 0 <= x521 <= 1
 0 <= x522 <= 1
 0 <= x523 <= 1
 0 <= x524 <= 1
 0 <= x525 <= 1
 0 <= x526 <= 1
 0 <= x527 <= 1
 0 <= x528 <= 1
 0 <= x529 <= 1
 0 <= x530 <= 1
 0 <= x531 <= 1
 0 <= x532 <= 1
 0 <= x533 <= 1
 0 <= x534 <= 1
 0 <= x535 <= 1
 0 <= x536 <= 1
 0 <= x537 <= 1
 0 <= x538 <= 1
 0 <= x539 <= 1
 0 <= x540 <= 1
 0 <= x541 <= 1
 0 <= x542 <= 1
 0 <= x543 <= 1
 0 <= x544 <= 1
 0 <= x545 <= 1
 0 <= x546 <= 1
 0 <= x547 <= 1
 0 <= x548 <= 1
 0 <= x549 <= 1
 0 <= x550 <= 1
Binaries
 x501  x502  x503  x504  x505  x506  x507  x508  x509  x510  x511  x512  x513 
 x514  x515  x516  x517  x518  x519  x520  x521  x522  x523  x524  x525  x526 
 x527  x528  x529  x530  x531  x532  x533  x534  x535  x536  x537  x538  x539 
 x540  x541  x542  x543  x544  x545  x546  x547  x548  x549  x550 
End
